data;
param nombreJob := 7;
param nombreRessource := 3;
param duree := 1 4 2 8 3 3 4 6 5 10 6 3 7 4;
param capaciteRessource := 1 6 2 11 3 17;
param besoinRessource : 1 2 3 :=
                    1   1 8 6
                    2   4 2 10
                    3   2 7 4
                    4   3 6 3
                    5   3 2 10
                    6   1 4 6
                    7   1 4 3;
end;

